; sanic :: corpus-study/repo_src/sanic/sanic/app.py :: wait_for at event:788 :: naive encoding (verdict: unsat)
; Generated by snf-pipeline (encoder.py) -- run with any
; SMT-LIB2-compliant solver, e.g. `z3 sanic__corpus-study_repo_src_sanic_sanic_app.py__waitfor_event_L788__naive.smt2`
; benchmark generated from python API
(set-info :status unknown)
(declare-fun timeout_fires () Bool)
(declare-fun cleanup_ran () Bool)
(assert
 (= timeout_fires false))
(assert
 (let (($x27 (not cleanup_ran)))
(and timeout_fires $x27)))
(check-sat)
